Instance Name : r107
Date : 2022-07-18
Solution
Route 1 : 72 75 39 23 67 55 25 54 26
Route 2 : 33 81 65 71 9 35 34 3 77
Route 3 : 95 92 37 14 44 38 86 16 91 100 98 59
Route 4 : 52 88 30 20 66 51 50 1
Route 5 : 53 40 58
Route 6 : 94 96 99 6 87 57 2 13
Route 7 : 60 5 45 8 83 84 17 61 85 93
Route 8 : 31 62 11 64 63 10 90 32 70
Route 9 : 27 69 76 79 78 29 24 68 80 12 28
Route 10 : 82 46 36 49 19 47 48 7 18 89
Route 11 : 97 42 43 15 41 22 56 4 74 73 21
